Geometry = GenFormat {
37 C
H  C  N  O  P
1   1      11.6592319973       4.9656797907      -2.6834786408
2   2      11.2260017241       4.1983974561      -3.1563309956
3   1      10.1635302227       4.4025776019      -3.2728071601
4   1      11.3081172703       3.3169339396      -2.5202461603
5   3      11.3243173273       4.4787426950      -5.6543967063
6   2      11.8456489771       3.9390949003      -4.4985307403
7   2      12.2151133157       4.1608279130      -6.6158581227
8   1      12.1418814639       4.4401612530      -7.6562113371
9   3      13.2529552051       3.4566595475      -6.1130950163
10   1      14.0601934712       3.1230613740      -6.6536585031
11   2      13.0488796577       3.3006201545      -4.7701871912
12   1      13.7492774858       2.7727705995      -4.1368122797
13   1      19.2849477079       6.0282049207      -5.9433609747
14   2      18.4111187238       5.5664636931      -6.0957353343
15   1      18.2787438127       5.4130398663      -7.1664846945
16   1      17.5942518670       6.2061027648      -5.7538988126
17   2      18.3187915804       4.2210366489      -5.3726353606
18   1      18.1823698795       4.3774662570      -4.2958250657
19   1      19.2607061427       3.6806288881      -5.4936903892
20   2      17.1452526696       3.3413087797      -5.9523081057
21   4      15.9998582705       3.4014362166      -5.3634001259
22   4      17.4290958485       2.6459205711      -6.9748093651
23   5      16.8122590482       0.6709072933     -11.9944202648
24   4      15.9193380989       1.1793486904     -10.6401722136
25   4      15.6689542566      -0.0011671756     -12.8630252329
26   4      17.8600191825      -0.3636266205     -11.4398638469
27   4      17.4285012802       1.9154704163     -12.6889175981
28   2      16.6269759669       1.7456514149      -9.5511035096
29   1      17.0167366731       2.7468806649      -9.8117831465
30   1      17.4941929202       1.1115808055      -9.2757056653
31   2      15.6527187502       1.8655342022      -8.3806272400
32   4      14.7781127033       2.7569901332      -8.3663532256
33   2      15.6393332939       0.6972405727      -7.4017463868
34   4      14.7694602991       0.8829231454      -6.2953308715
35   1      15.1305890883       1.6890654455      -5.8457602894
36   1      16.6854240262       0.6533355948      -7.0660265422
37   1      15.3755297674      -0.2437440172      -7.9177688108
}
Driver = {}
Hamiltonian = DFTB {
  ElectricField = {
    PointCharges = {
      CoordsAndCharges [Angstrom] = DirectRead {
        Records = 2919
        File = mm_charges.dat
      }
      GaussianBlurWidth = 0.00000000000000
    }
  }
  SCC = Yes
  Charge = -3.0
  ReadInitialCharges = Yes
  SlaterKosterFiles = Type2FileNames {
    Prefix = "/home/yagi/pgm/dftb/slako/3ob-3-1/"
    Separator = "-"
    Suffix = ".skf"
    LowerCaseTypeName = No
  }
  MaxAngularMomentum = {
    H = "s"
    C = "p"
    N = "p"
    O = "p"
    P = "d"
  }
  Filling = Fermi {
    Temperature [Kelvin] = 0.0
  }
  PolynomialRepulsive = {}
  OrbitalResolvedSCC = No
  OldSKInterpolation = No
  SCCTolerance = 1.000000000000000E-005
  Mixer = Broyden {
    MixingParameter = 0.200000000000000
    InverseJacobiWeight = 1.000000000000000E-002
    MinimalWeight = 1.00000000000000
    MaximalWeight = 100000.000000000
    WeightFactor = 1.000000000000000E-002
  }
  DampXH = No
  SpinPolarisation = {}
  Eigensolver = RelativelyRobust {}
  MaxSCCIterations = 100
  Dispersion = {}
  ThirdOrder = No
  ThirdOrderFull = No
  Differentiation = FiniteDiff {
    Delta = 1.220703125000000E-004
  }
  ForceEvaluation = "Traditional"
}
Options = {
  WriteDetailedOut = Yes
  WriteAutotestTag = No
  WriteDetailedXML = No
  WriteResultsTag = No
  RestartFrequency = 20
  RandomSeed = 0
  WriteHS = No
  WriteRealHS = No
  MinimiseMemoryUsage = No
  ShowFoldedCoords = No
  TimingVerbosity = 0
  ReadChargesAsText = No
  WriteChargesAsText = No
}
Analysis = {
  CalculateForces = Yes
  ProjectStates = {}
  MullikenAnalysis = Yes
  AtomResolvedEnergies = No
  WriteEigenvectors = No
  WriteBandOut = Yes
}
ParserOptions = {
  ParserVersion = 5
  WriteHSDInput = Yes
  WriteXMLInput = No
  StopAfterParsing = No
  IgnoreUnprocessedNodes = No
}
ExcitedState = {}
