Geometry = GenFormat {
90 C
H  C  N  O
1   1      -0.4342775144      -3.9513678302      -8.4570548213
2   2       0.3020833357      -3.3219626119      -8.7052921465
3   1      -0.1262066493      -2.3899080698      -9.0643986571
4   1       0.9114676928      -3.1036566913      -7.8287414843
5   3       1.1329765397      -3.8392231520      -9.8099939818
6   1       1.0365611864      -3.3485769943     -10.7030014085
7   2       2.2710556292      -4.5899445406      -9.7384782551
8   3       2.6497651446      -5.2188964656      -8.5741576621
9   1       3.5342536387      -5.6965451266      -8.5671043832
10   1       2.2209149803      -5.0483574820      -7.6575690713
11   3       3.0203783853      -4.6398547943     -10.8345554125
12   1       3.9388889660      -5.0823356832     -10.8755911325
13   1       2.8381563242      -3.9641858400     -11.5671213576
14   1      -4.0322341199      -6.2942092608      -2.3626597335
15   2      -3.1317414466      -6.3563617951      -2.7930665268
16   1      -3.1585665008      -7.1234203868      -3.5522133130
17   1      -2.9553030990      -5.4581530226      -3.3683263297
18   2      -1.9359724677      -6.6148350317      -1.8174467067
19   4      -0.9125582023      -7.2042572275      -2.3914921192
20   4      -1.9399976095      -6.2239859510      -0.6495231070
21   1       5.2464907392      -4.8929262656      -1.0584967474
22   2       4.6572933845      -5.4242183634      -1.6672456153
23   1       5.2635976009      -5.9802945328      -2.3753868186
24   1       4.0596757996      -6.1434429633      -1.1069803930
25   2       3.6090523057      -4.5409198302      -2.4057239642
26   4       3.0611384982      -3.5592969337      -1.7707017843
27   4       3.2103704408      -4.9253586265      -3.5662671850
28   1       1.8886167680      -6.5024205946       2.5004173678
29   2       1.0179007222      -6.2039703895       2.1095452114
30   1       0.5952942905      -7.0110162009       1.5115484024
31   1       0.3014728166      -6.0219809928       2.9140962516
32   3       1.1568777498      -5.0503472204       1.2329058729
33   1       1.0433396813      -5.2704030382       0.2265052701
34   2       1.2928946277      -3.7727176425       1.5957639659
35   1       1.3841209079      -3.5736696090       2.6670108888
36   2       1.2548325255      -2.7425138978       0.6380687530
37   1       1.1024687482      -3.0946380325      -0.3797435793
38   2       1.2676402471      -1.3584100610       0.8216929928
39   2       1.6924994778      -0.7012393196       2.1045895481
40   1       2.6115153601      -0.1476287935       1.9195548325
41   1       1.8771547958      -1.3946447487       2.9192906066
42   1       0.9790073007       0.0397433131       2.4621146184
43   2       0.8573970876      -0.5369762270      -0.2726257027
44   1       0.6516072459      -1.0500594256      -1.2121236927
45   2       0.6861957844       0.8286842744      -0.2675779755
46   1       0.9104974270       1.4042193487       0.6309061144
47   2       0.1467741351       1.4929197731      -1.4103047036
48   1      -0.1375546640       0.8287841250      -2.2293254404
49   2       0.0076150631       2.8575608713      -1.6103539369
50   2       0.4475274322       3.8913564508      -0.6134715278
51   1      -0.4044578460       4.4404437252      -0.1976825454
52   1       1.0786912742       4.6419095654      -1.0901718335
53   1       1.0082557776       3.4359358176       0.1988222621
54   2      -0.5877152499       3.2837472017      -2.8622887365
55   1      -1.0740635978       2.4963542881      -3.4241331805
56   2      -0.5402867814       4.5649215533      -3.3773091880
57   1      -0.0589697870       5.3280260569      -2.7749586831
58   2      -1.0723909882       5.0416889502      -4.6502663440
59   2      -1.2699773441       6.3919073033      -4.8432417452
60   2      -1.0856483976       7.4162657988      -3.7514181930
61   1      -1.1251985032       8.4267095955      -4.1533988100
62   1      -1.9007908225       7.3237358745      -3.0347631378
63   1      -0.1519336705       7.3129995256      -3.1960651954
64   2      -1.7351373656       6.9629121542      -6.1692653741
65   1      -2.2418222039       7.9199501141      -5.9962525672
66   1      -0.8369285729       7.1832818025      -6.7745123009
67   2      -2.6092228290       5.9778860912      -6.9237921837
68   1      -3.5104725645       5.7727104124      -6.3409655031
69   1      -2.9152226958       6.3972571780      -7.8870629509
70   2      -1.8076501551       4.7106309121      -7.1120149434
71   1      -0.8819024803       4.9489135588      -7.6475743170
72   1      -2.3684771921       4.0066104485      -7.7292232252
73   2      -1.4679468410       4.0183073692      -5.7639865601
74   2      -2.7674543126       3.2620445958      -5.3178775071
75   1      -3.3515101531       3.8306150331      -4.6000754996
76   1      -2.5683493433       2.2931400848      -4.8682796984
77   1      -3.4217822195       3.0973817068      -6.1751049672
78   2      -0.3336334582       3.0147235455      -6.1039141942
79   1       0.5087718741       3.5340492602      -6.5525054129
80   1      -0.7075103017       2.2991533439      -6.8407991656
81   1       0.0450614185       2.4858366935      -5.2350244101
82   4      -0.1811731367      -5.5064020866      -4.3458966278
83   1      -0.0873270769      -4.7590702849      -3.7358223877
84   1      -0.5038900495      -6.2750803837      -3.8193779768
85   4       1.3030201290      -6.2762479079      -1.3418730711
86   1       1.6160189247      -5.8349531181      -2.1475675862
87   1       0.4813725298      -6.7875057563      -1.5851671972
88   4       1.9615895372      -4.5657806231      -5.9344020198
89   1       1.1761232654      -5.0015066492      -5.5445440869
90   1       2.5827480722      -4.4875433321      -5.1696185717
}
Driver = {}
Hamiltonian = DFTB {
  ElectricField = {
    PointCharges = {
      CoordsAndCharges [Angstrom] = DirectRead {
        Records = 3602
        File = mm_charges.dat
      }
      GaussianBlurWidth = 0.00000000000000
    }
  }
  SCC = Yes
  Charge = 0
  ReadInitialCharges = Yes
  SlaterKosterFiles = Type2FileNames {
    Prefix = "/home/yagi/devel/genesis/tests_qmmm/dftb/slako/3ob-3-1/"
    Separator = "-"
    Suffix = ".skf"
    LowerCaseTypeName = No
  }
  MaxAngularMomentum = {
    O = "p"
    N = "p"
    C = "p"
    H = "s"
  }
  Filling = Fermi {
    Temperature [Kelvin] = 0.0
  }
  ThirdOrderFull = Yes
  DampXH = Yes
  DampXHExponent = 4.00
  HubbardDerivs = {
    O = -0.1575
    N = -0.1535
    H = -0.1857
    C = -0.1492
  }
  PolynomialRepulsive = {}
  OrbitalResolvedSCC = No
  OldSKInterpolation = No
  SCCTolerance = 1.000000000000000E-005
  Mixer = Broyden {
    MixingParameter = 0.200000000000000
    InverseJacobiWeight = 1.000000000000000E-002
    MinimalWeight = 1.00000000000000
    MaximalWeight = 100000.000000000
    WeightFactor = 1.000000000000000E-002
  }
  SpinPolarisation = {}
  Eigensolver = RelativelyRobust {}
  MaxSCCIterations = 100
  Dispersion = {}
  ThirdOrder = No
  Differentiation = FiniteDiff {
    Delta = 1.220703125000000E-004
  }
  ForceEvaluation = "Traditional"
}
Options = {
  WriteDetailedOut = Yes
  WriteAutotestTag = No
  WriteDetailedXML = No
  WriteResultsTag = No
  RestartFrequency = 20
  RandomSeed = 0
  WriteHS = No
  WriteRealHS = No
  MinimiseMemoryUsage = No
  ShowFoldedCoords = No
  TimingVerbosity = 0
  ReadChargesAsText = No
  WriteChargesAsText = No
}
Analysis = {
  CalculateForces = Yes
  ProjectStates = {}
  MullikenAnalysis = Yes
  AtomResolvedEnergies = No
  WriteEigenvectors = No
  WriteBandOut = Yes
}
ParserOptions = {
  ParserVersion = 5
  WriteHSDInput = Yes
  WriteXMLInput = No
  StopAfterParsing = No
  IgnoreUnprocessedNodes = No
}
ExcitedState = {}
