
Driver = {}

Hamiltonian = DFTB {
  SCC                = Yes
  Charge             = -3.0
  ReadInitialCharges = Yes
  SlaterKosterFiles  = Type2FileNames {
    Prefix = "/home/yagi/pgm/dftb/slako/3ob-3-1/"
    Separator = "-"
    Suffix = ".skf"
  }
  MaxAngularMomentum {
    H = "s"
    C = "p"
    N = "p"
    O = "p"
    P = "d"
  }
  Filling = Fermi {
    Temperature [Kelvin] = 0.0
  }

}

Options {}

Analysis = {
  CalculateForces = Yes
}

ParserOptions {
  ParserVersion = 5
}
