
Driver = {}

Hamiltonian = DFTB {
  SCC                = Yes
  Charge             = 0
  ReadInitialCharges = Yes
  SlaterKosterFiles  = Type2FileNames {
    Prefix = "/home/yagi/devel/genesis/tests_qmmm/dftb/slako/3ob-3-1/"
    Separator = "-"
    Suffix = ".skf"
  }
  MaxAngularMomentum {
    O = "p"
    N = "p"
    C = "p"
    H = "s"
  }
  Filling = Fermi {
    Temperature [Kelvin] = 0.0
  }
  ThirdOrderFull = Yes
  DampXH         = Yes
  DampXHExponent = 4.00
  HubbardDerivs {
    O = -0.1575
    N = -0.1535
    H = -0.1857
    C = -0.1492
  }

}

Options {}

Analysis = {
  CalculateForces = Yes
}

ParserOptions {
  ParserVersion = 5
}
